c *********************************
c * Circuit generated by BenCGen
c *
c * CarrySaveAdder_147_147_147_147_148
c *
c * Ports with 1 gate(s): 2
c * Ports with 2 gate(s): 736
c * Total gates: 738
c *********************************
p cnf 1179 2506
1 738 0
-1 -738 0
1 -737 0
738 -737 0
-1 -738 737 0
737 -589 0
-737 589 0
1 148 -739 0
-1 148 739 0
1 -148 739 0
-1 -148 -739 0
739 295 -442 0
-739 295 442 0
739 -295 442 0
-739 -295 -442 0
295 -740 0
739 -740 0
-295 -739 740 0
148 -741 0
1 -741 0
-148 -1 741 0
-740 590 0
-741 590 0
740 741 -590 0
2 149 -742 0
-2 149 742 0
2 -149 742 0
-2 -149 -742 0
742 296 -443 0
-742 296 443 0
742 -296 443 0
-742 -296 -443 0
296 -743 0
742 -743 0
-296 -742 743 0
149 -744 0
2 -744 0
-149 -2 744 0
-743 591 0
-744 591 0
743 744 -591 0
3 150 -745 0
-3 150 745 0
3 -150 745 0
-3 -150 -745 0
745 297 -444 0
-745 297 444 0
745 -297 444 0
-745 -297 -444 0
297 -746 0
745 -746 0
-297 -745 746 0
150 -747 0
3 -747 0
-150 -3 747 0
-746 592 0
-747 592 0
746 747 -592 0
4 151 -748 0
-4 151 748 0
4 -151 748 0
-4 -151 -748 0
748 298 -445 0
-748 298 445 0
748 -298 445 0
-748 -298 -445 0
298 -749 0
748 -749 0
-298 -748 749 0
151 -750 0
4 -750 0
-151 -4 750 0
-749 593 0
-750 593 0
749 750 -593 0
5 152 -751 0
-5 152 751 0
5 -152 751 0
-5 -152 -751 0
751 299 -446 0
-751 299 446 0
751 -299 446 0
-751 -299 -446 0
299 -752 0
751 -752 0
-299 -751 752 0
152 -753 0
5 -753 0
-152 -5 753 0
-752 594 0
-753 594 0
752 753 -594 0
6 153 -754 0
-6 153 754 0
6 -153 754 0
-6 -153 -754 0
754 300 -447 0
-754 300 447 0
754 -300 447 0
-754 -300 -447 0
300 -755 0
754 -755 0
-300 -754 755 0
153 -756 0
6 -756 0
-153 -6 756 0
-755 595 0
-756 595 0
755 756 -595 0
7 154 -757 0
-7 154 757 0
7 -154 757 0
-7 -154 -757 0
757 301 -448 0
-757 301 448 0
757 -301 448 0
-757 -301 -448 0
301 -758 0
757 -758 0
-301 -757 758 0
154 -759 0
7 -759 0
-154 -7 759 0
-758 596 0
-759 596 0
758 759 -596 0
8 155 -760 0
-8 155 760 0
8 -155 760 0
-8 -155 -760 0
760 302 -449 0
-760 302 449 0
760 -302 449 0
-760 -302 -449 0
302 -761 0
760 -761 0
-302 -760 761 0
155 -762 0
8 -762 0
-155 -8 762 0
-761 597 0
-762 597 0
761 762 -597 0
9 156 -763 0
-9 156 763 0
9 -156 763 0
-9 -156 -763 0
763 303 -450 0
-763 303 450 0
763 -303 450 0
-763 -303 -450 0
303 -764 0
763 -764 0
-303 -763 764 0
156 -765 0
9 -765 0
-156 -9 765 0
-764 598 0
-765 598 0
764 765 -598 0
10 157 -766 0
-10 157 766 0
10 -157 766 0
-10 -157 -766 0
766 304 -451 0
-766 304 451 0
766 -304 451 0
-766 -304 -451 0
304 -767 0
766 -767 0
-304 -766 767 0
157 -768 0
10 -768 0
-157 -10 768 0
-767 599 0
-768 599 0
767 768 -599 0
11 158 -769 0
-11 158 769 0
11 -158 769 0
-11 -158 -769 0
769 305 -452 0
-769 305 452 0
769 -305 452 0
-769 -305 -452 0
305 -770 0
769 -770 0
-305 -769 770 0
158 -771 0
11 -771 0
-158 -11 771 0
-770 600 0
-771 600 0
770 771 -600 0
12 159 -772 0
-12 159 772 0
12 -159 772 0
-12 -159 -772 0
772 306 -453 0
-772 306 453 0
772 -306 453 0
-772 -306 -453 0
306 -773 0
772 -773 0
-306 -772 773 0
159 -774 0
12 -774 0
-159 -12 774 0
-773 601 0
-774 601 0
773 774 -601 0
13 160 -775 0
-13 160 775 0
13 -160 775 0
-13 -160 -775 0
775 307 -454 0
-775 307 454 0
775 -307 454 0
-775 -307 -454 0
307 -776 0
775 -776 0
-307 -775 776 0
160 -777 0
13 -777 0
-160 -13 777 0
-776 602 0
-777 602 0
776 777 -602 0
14 161 -778 0
-14 161 778 0
14 -161 778 0
-14 -161 -778 0
778 308 -455 0
-778 308 455 0
778 -308 455 0
-778 -308 -455 0
308 -779 0
778 -779 0
-308 -778 779 0
161 -780 0
14 -780 0
-161 -14 780 0
-779 603 0
-780 603 0
779 780 -603 0
15 162 -781 0
-15 162 781 0
15 -162 781 0
-15 -162 -781 0
781 309 -456 0
-781 309 456 0
781 -309 456 0
-781 -309 -456 0
309 -782 0
781 -782 0
-309 -781 782 0
162 -783 0
15 -783 0
-162 -15 783 0
-782 604 0
-783 604 0
782 783 -604 0
16 163 -784 0
-16 163 784 0
16 -163 784 0
-16 -163 -784 0
784 310 -457 0
-784 310 457 0
784 -310 457 0
-784 -310 -457 0
310 -785 0
784 -785 0
-310 -784 785 0
163 -786 0
16 -786 0
-163 -16 786 0
-785 605 0
-786 605 0
785 786 -605 0
17 164 -787 0
-17 164 787 0
17 -164 787 0
-17 -164 -787 0
787 311 -458 0
-787 311 458 0
787 -311 458 0
-787 -311 -458 0
311 -788 0
787 -788 0
-311 -787 788 0
164 -789 0
17 -789 0
-164 -17 789 0
-788 606 0
-789 606 0
788 789 -606 0
18 165 -790 0
-18 165 790 0
18 -165 790 0
-18 -165 -790 0
790 312 -459 0
-790 312 459 0
790 -312 459 0
-790 -312 -459 0
312 -791 0
790 -791 0
-312 -790 791 0
165 -792 0
18 -792 0
-165 -18 792 0
-791 607 0
-792 607 0
791 792 -607 0
19 166 -793 0
-19 166 793 0
19 -166 793 0
-19 -166 -793 0
793 313 -460 0
-793 313 460 0
793 -313 460 0
-793 -313 -460 0
313 -794 0
793 -794 0
-313 -793 794 0
166 -795 0
19 -795 0
-166 -19 795 0
-794 608 0
-795 608 0
794 795 -608 0
20 167 -796 0
-20 167 796 0
20 -167 796 0
-20 -167 -796 0
796 314 -461 0
-796 314 461 0
796 -314 461 0
-796 -314 -461 0
314 -797 0
796 -797 0
-314 -796 797 0
167 -798 0
20 -798 0
-167 -20 798 0
-797 609 0
-798 609 0
797 798 -609 0
21 168 -799 0
-21 168 799 0
21 -168 799 0
-21 -168 -799 0
799 315 -462 0
-799 315 462 0
799 -315 462 0
-799 -315 -462 0
315 -800 0
799 -800 0
-315 -799 800 0
168 -801 0
21 -801 0
-168 -21 801 0
-800 610 0
-801 610 0
800 801 -610 0
22 169 -802 0
-22 169 802 0
22 -169 802 0
-22 -169 -802 0
802 316 -463 0
-802 316 463 0
802 -316 463 0
-802 -316 -463 0
316 -803 0
802 -803 0
-316 -802 803 0
169 -804 0
22 -804 0
-169 -22 804 0
-803 611 0
-804 611 0
803 804 -611 0
23 170 -805 0
-23 170 805 0
23 -170 805 0
-23 -170 -805 0
805 317 -464 0
-805 317 464 0
805 -317 464 0
-805 -317 -464 0
317 -806 0
805 -806 0
-317 -805 806 0
170 -807 0
23 -807 0
-170 -23 807 0
-806 612 0
-807 612 0
806 807 -612 0
24 171 -808 0
-24 171 808 0
24 -171 808 0
-24 -171 -808 0
808 318 -465 0
-808 318 465 0
808 -318 465 0
-808 -318 -465 0
318 -809 0
808 -809 0
-318 -808 809 0
171 -810 0
24 -810 0
-171 -24 810 0
-809 613 0
-810 613 0
809 810 -613 0
25 172 -811 0
-25 172 811 0
25 -172 811 0
-25 -172 -811 0
811 319 -466 0
-811 319 466 0
811 -319 466 0
-811 -319 -466 0
319 -812 0
811 -812 0
-319 -811 812 0
172 -813 0
25 -813 0
-172 -25 813 0
-812 614 0
-813 614 0
812 813 -614 0
26 173 -814 0
-26 173 814 0
26 -173 814 0
-26 -173 -814 0
814 320 -467 0
-814 320 467 0
814 -320 467 0
-814 -320 -467 0
320 -815 0
814 -815 0
-320 -814 815 0
173 -816 0
26 -816 0
-173 -26 816 0
-815 615 0
-816 615 0
815 816 -615 0
27 174 -817 0
-27 174 817 0
27 -174 817 0
-27 -174 -817 0
817 321 -468 0
-817 321 468 0
817 -321 468 0
-817 -321 -468 0
321 -818 0
817 -818 0
-321 -817 818 0
174 -819 0
27 -819 0
-174 -27 819 0
-818 616 0
-819 616 0
818 819 -616 0
28 175 -820 0
-28 175 820 0
28 -175 820 0
-28 -175 -820 0
820 322 -469 0
-820 322 469 0
820 -322 469 0
-820 -322 -469 0
322 -821 0
820 -821 0
-322 -820 821 0
175 -822 0
28 -822 0
-175 -28 822 0
-821 617 0
-822 617 0
821 822 -617 0
29 176 -823 0
-29 176 823 0
29 -176 823 0
-29 -176 -823 0
823 323 -470 0
-823 323 470 0
823 -323 470 0
-823 -323 -470 0
323 -824 0
823 -824 0
-323 -823 824 0
176 -825 0
29 -825 0
-176 -29 825 0
-824 618 0
-825 618 0
824 825 -618 0
30 177 -826 0
-30 177 826 0
30 -177 826 0
-30 -177 -826 0
826 324 -471 0
-826 324 471 0
826 -324 471 0
-826 -324 -471 0
324 -827 0
826 -827 0
-324 -826 827 0
177 -828 0
30 -828 0
-177 -30 828 0
-827 619 0
-828 619 0
827 828 -619 0
31 178 -829 0
-31 178 829 0
31 -178 829 0
-31 -178 -829 0
829 325 -472 0
-829 325 472 0
829 -325 472 0
-829 -325 -472 0
325 -830 0
829 -830 0
-325 -829 830 0
178 -831 0
31 -831 0
-178 -31 831 0
-830 620 0
-831 620 0
830 831 -620 0
32 179 -832 0
-32 179 832 0
32 -179 832 0
-32 -179 -832 0
832 326 -473 0
-832 326 473 0
832 -326 473 0
-832 -326 -473 0
326 -833 0
832 -833 0
-326 -832 833 0
179 -834 0
32 -834 0
-179 -32 834 0
-833 621 0
-834 621 0
833 834 -621 0
33 180 -835 0
-33 180 835 0
33 -180 835 0
-33 -180 -835 0
835 327 -474 0
-835 327 474 0
835 -327 474 0
-835 -327 -474 0
327 -836 0
835 -836 0
-327 -835 836 0
180 -837 0
33 -837 0
-180 -33 837 0
-836 622 0
-837 622 0
836 837 -622 0
34 181 -838 0
-34 181 838 0
34 -181 838 0
-34 -181 -838 0
838 328 -475 0
-838 328 475 0
838 -328 475 0
-838 -328 -475 0
328 -839 0
838 -839 0
-328 -838 839 0
181 -840 0
34 -840 0
-181 -34 840 0
-839 623 0
-840 623 0
839 840 -623 0
35 182 -841 0
-35 182 841 0
35 -182 841 0
-35 -182 -841 0
841 329 -476 0
-841 329 476 0
841 -329 476 0
-841 -329 -476 0
329 -842 0
841 -842 0
-329 -841 842 0
182 -843 0
35 -843 0
-182 -35 843 0
-842 624 0
-843 624 0
842 843 -624 0
36 183 -844 0
-36 183 844 0
36 -183 844 0
-36 -183 -844 0
844 330 -477 0
-844 330 477 0
844 -330 477 0
-844 -330 -477 0
330 -845 0
844 -845 0
-330 -844 845 0
183 -846 0
36 -846 0
-183 -36 846 0
-845 625 0
-846 625 0
845 846 -625 0
37 184 -847 0
-37 184 847 0
37 -184 847 0
-37 -184 -847 0
847 331 -478 0
-847 331 478 0
847 -331 478 0
-847 -331 -478 0
331 -848 0
847 -848 0
-331 -847 848 0
184 -849 0
37 -849 0
-184 -37 849 0
-848 626 0
-849 626 0
848 849 -626 0
38 185 -850 0
-38 185 850 0
38 -185 850 0
-38 -185 -850 0
850 332 -479 0
-850 332 479 0
850 -332 479 0
-850 -332 -479 0
332 -851 0
850 -851 0
-332 -850 851 0
185 -852 0
38 -852 0
-185 -38 852 0
-851 627 0
-852 627 0
851 852 -627 0
39 186 -853 0
-39 186 853 0
39 -186 853 0
-39 -186 -853 0
853 333 -480 0
-853 333 480 0
853 -333 480 0
-853 -333 -480 0
333 -854 0
853 -854 0
-333 -853 854 0
186 -855 0
39 -855 0
-186 -39 855 0
-854 628 0
-855 628 0
854 855 -628 0
40 187 -856 0
-40 187 856 0
40 -187 856 0
-40 -187 -856 0
856 334 -481 0
-856 334 481 0
856 -334 481 0
-856 -334 -481 0
334 -857 0
856 -857 0
-334 -856 857 0
187 -858 0
40 -858 0
-187 -40 858 0
-857 629 0
-858 629 0
857 858 -629 0
41 188 -859 0
-41 188 859 0
41 -188 859 0
-41 -188 -859 0
859 335 -482 0
-859 335 482 0
859 -335 482 0
-859 -335 -482 0
335 -860 0
859 -860 0
-335 -859 860 0
188 -861 0
41 -861 0
-188 -41 861 0
-860 630 0
-861 630 0
860 861 -630 0
42 189 -862 0
-42 189 862 0
42 -189 862 0
-42 -189 -862 0
862 336 -483 0
-862 336 483 0
862 -336 483 0
-862 -336 -483 0
336 -863 0
862 -863 0
-336 -862 863 0
189 -864 0
42 -864 0
-189 -42 864 0
-863 631 0
-864 631 0
863 864 -631 0
43 190 -865 0
-43 190 865 0
43 -190 865 0
-43 -190 -865 0
865 337 -484 0
-865 337 484 0
865 -337 484 0
-865 -337 -484 0
337 -866 0
865 -866 0
-337 -865 866 0
190 -867 0
43 -867 0
-190 -43 867 0
-866 632 0
-867 632 0
866 867 -632 0
44 191 -868 0
-44 191 868 0
44 -191 868 0
-44 -191 -868 0
868 338 -485 0
-868 338 485 0
868 -338 485 0
-868 -338 -485 0
338 -869 0
868 -869 0
-338 -868 869 0
191 -870 0
44 -870 0
-191 -44 870 0
-869 633 0
-870 633 0
869 870 -633 0
45 192 -871 0
-45 192 871 0
45 -192 871 0
-45 -192 -871 0
871 339 -486 0
-871 339 486 0
871 -339 486 0
-871 -339 -486 0
339 -872 0
871 -872 0
-339 -871 872 0
192 -873 0
45 -873 0
-192 -45 873 0
-872 634 0
-873 634 0
872 873 -634 0
46 193 -874 0
-46 193 874 0
46 -193 874 0
-46 -193 -874 0
874 340 -487 0
-874 340 487 0
874 -340 487 0
-874 -340 -487 0
340 -875 0
874 -875 0
-340 -874 875 0
193 -876 0
46 -876 0
-193 -46 876 0
-875 635 0
-876 635 0
875 876 -635 0
47 194 -877 0
-47 194 877 0
47 -194 877 0
-47 -194 -877 0
877 341 -488 0
-877 341 488 0
877 -341 488 0
-877 -341 -488 0
341 -878 0
877 -878 0
-341 -877 878 0
194 -879 0
47 -879 0
-194 -47 879 0
-878 636 0
-879 636 0
878 879 -636 0
48 195 -880 0
-48 195 880 0
48 -195 880 0
-48 -195 -880 0
880 342 -489 0
-880 342 489 0
880 -342 489 0
-880 -342 -489 0
342 -881 0
880 -881 0
-342 -880 881 0
195 -882 0
48 -882 0
-195 -48 882 0
-881 637 0
-882 637 0
881 882 -637 0
49 196 -883 0
-49 196 883 0
49 -196 883 0
-49 -196 -883 0
883 343 -490 0
-883 343 490 0
883 -343 490 0
-883 -343 -490 0
343 -884 0
883 -884 0
-343 -883 884 0
196 -885 0
49 -885 0
-196 -49 885 0
-884 638 0
-885 638 0
884 885 -638 0
50 197 -886 0
-50 197 886 0
50 -197 886 0
-50 -197 -886 0
886 344 -491 0
-886 344 491 0
886 -344 491 0
-886 -344 -491 0
344 -887 0
886 -887 0
-344 -886 887 0
197 -888 0
50 -888 0
-197 -50 888 0
-887 639 0
-888 639 0
887 888 -639 0
51 198 -889 0
-51 198 889 0
51 -198 889 0
-51 -198 -889 0
889 345 -492 0
-889 345 492 0
889 -345 492 0
-889 -345 -492 0
345 -890 0
889 -890 0
-345 -889 890 0
198 -891 0
51 -891 0
-198 -51 891 0
-890 640 0
-891 640 0
890 891 -640 0
52 199 -892 0
-52 199 892 0
52 -199 892 0
-52 -199 -892 0
892 346 -493 0
-892 346 493 0
892 -346 493 0
-892 -346 -493 0
346 -893 0
892 -893 0
-346 -892 893 0
199 -894 0
52 -894 0
-199 -52 894 0
-893 641 0
-894 641 0
893 894 -641 0
53 200 -895 0
-53 200 895 0
53 -200 895 0
-53 -200 -895 0
895 347 -494 0
-895 347 494 0
895 -347 494 0
-895 -347 -494 0
347 -896 0
895 -896 0
-347 -895 896 0
200 -897 0
53 -897 0
-200 -53 897 0
-896 642 0
-897 642 0
896 897 -642 0
54 201 -898 0
-54 201 898 0
54 -201 898 0
-54 -201 -898 0
898 348 -495 0
-898 348 495 0
898 -348 495 0
-898 -348 -495 0
348 -899 0
898 -899 0
-348 -898 899 0
201 -900 0
54 -900 0
-201 -54 900 0
-899 643 0
-900 643 0
899 900 -643 0
55 202 -901 0
-55 202 901 0
55 -202 901 0
-55 -202 -901 0
901 349 -496 0
-901 349 496 0
901 -349 496 0
-901 -349 -496 0
349 -902 0
901 -902 0
-349 -901 902 0
202 -903 0
55 -903 0
-202 -55 903 0
-902 644 0
-903 644 0
902 903 -644 0
56 203 -904 0
-56 203 904 0
56 -203 904 0
-56 -203 -904 0
904 350 -497 0
-904 350 497 0
904 -350 497 0
-904 -350 -497 0
350 -905 0
904 -905 0
-350 -904 905 0
203 -906 0
56 -906 0
-203 -56 906 0
-905 645 0
-906 645 0
905 906 -645 0
57 204 -907 0
-57 204 907 0
57 -204 907 0
-57 -204 -907 0
907 351 -498 0
-907 351 498 0
907 -351 498 0
-907 -351 -498 0
351 -908 0
907 -908 0
-351 -907 908 0
204 -909 0
57 -909 0
-204 -57 909 0
-908 646 0
-909 646 0
908 909 -646 0
58 205 -910 0
-58 205 910 0
58 -205 910 0
-58 -205 -910 0
910 352 -499 0
-910 352 499 0
910 -352 499 0
-910 -352 -499 0
352 -911 0
910 -911 0
-352 -910 911 0
205 -912 0
58 -912 0
-205 -58 912 0
-911 647 0
-912 647 0
911 912 -647 0
59 206 -913 0
-59 206 913 0
59 -206 913 0
-59 -206 -913 0
913 353 -500 0
-913 353 500 0
913 -353 500 0
-913 -353 -500 0
353 -914 0
913 -914 0
-353 -913 914 0
206 -915 0
59 -915 0
-206 -59 915 0
-914 648 0
-915 648 0
914 915 -648 0
60 207 -916 0
-60 207 916 0
60 -207 916 0
-60 -207 -916 0
916 354 -501 0
-916 354 501 0
916 -354 501 0
-916 -354 -501 0
354 -917 0
916 -917 0
-354 -916 917 0
207 -918 0
60 -918 0
-207 -60 918 0
-917 649 0
-918 649 0
917 918 -649 0
61 208 -919 0
-61 208 919 0
61 -208 919 0
-61 -208 -919 0
919 355 -502 0
-919 355 502 0
919 -355 502 0
-919 -355 -502 0
355 -920 0
919 -920 0
-355 -919 920 0
208 -921 0
61 -921 0
-208 -61 921 0
-920 650 0
-921 650 0
920 921 -650 0
62 209 -922 0
-62 209 922 0
62 -209 922 0
-62 -209 -922 0
922 356 -503 0
-922 356 503 0
922 -356 503 0
-922 -356 -503 0
356 -923 0
922 -923 0
-356 -922 923 0
209 -924 0
62 -924 0
-209 -62 924 0
-923 651 0
-924 651 0
923 924 -651 0
63 210 -925 0
-63 210 925 0
63 -210 925 0
-63 -210 -925 0
925 357 -504 0
-925 357 504 0
925 -357 504 0
-925 -357 -504 0
357 -926 0
925 -926 0
-357 -925 926 0
210 -927 0
63 -927 0
-210 -63 927 0
-926 652 0
-927 652 0
926 927 -652 0
64 211 -928 0
-64 211 928 0
64 -211 928 0
-64 -211 -928 0
928 358 -505 0
-928 358 505 0
928 -358 505 0
-928 -358 -505 0
358 -929 0
928 -929 0
-358 -928 929 0
211 -930 0
64 -930 0
-211 -64 930 0
-929 653 0
-930 653 0
929 930 -653 0
65 212 -931 0
-65 212 931 0
65 -212 931 0
-65 -212 -931 0
931 359 -506 0
-931 359 506 0
931 -359 506 0
-931 -359 -506 0
359 -932 0
931 -932 0
-359 -931 932 0
212 -933 0
65 -933 0
-212 -65 933 0
-932 654 0
-933 654 0
932 933 -654 0
66 213 -934 0
-66 213 934 0
66 -213 934 0
-66 -213 -934 0
934 360 -507 0
-934 360 507 0
934 -360 507 0
-934 -360 -507 0
360 -935 0
934 -935 0
-360 -934 935 0
213 -936 0
66 -936 0
-213 -66 936 0
-935 655 0
-936 655 0
935 936 -655 0
67 214 -937 0
-67 214 937 0
67 -214 937 0
-67 -214 -937 0
937 361 -508 0
-937 361 508 0
937 -361 508 0
-937 -361 -508 0
361 -938 0
937 -938 0
-361 -937 938 0
214 -939 0
67 -939 0
-214 -67 939 0
-938 656 0
-939 656 0
938 939 -656 0
68 215 -940 0
-68 215 940 0
68 -215 940 0
-68 -215 -940 0
940 362 -509 0
-940 362 509 0
940 -362 509 0
-940 -362 -509 0
362 -941 0
940 -941 0
-362 -940 941 0
215 -942 0
68 -942 0
-215 -68 942 0
-941 657 0
-942 657 0
941 942 -657 0
69 216 -943 0
-69 216 943 0
69 -216 943 0
-69 -216 -943 0
943 363 -510 0
-943 363 510 0
943 -363 510 0
-943 -363 -510 0
363 -944 0
943 -944 0
-363 -943 944 0
216 -945 0
69 -945 0
-216 -69 945 0
-944 658 0
-945 658 0
944 945 -658 0
70 217 -946 0
-70 217 946 0
70 -217 946 0
-70 -217 -946 0
946 364 -511 0
-946 364 511 0
946 -364 511 0
-946 -364 -511 0
364 -947 0
946 -947 0
-364 -946 947 0
217 -948 0
70 -948 0
-217 -70 948 0
-947 659 0
-948 659 0
947 948 -659 0
71 218 -949 0
-71 218 949 0
71 -218 949 0
-71 -218 -949 0
949 365 -512 0
-949 365 512 0
949 -365 512 0
-949 -365 -512 0
365 -950 0
949 -950 0
-365 -949 950 0
218 -951 0
71 -951 0
-218 -71 951 0
-950 660 0
-951 660 0
950 951 -660 0
72 219 -952 0
-72 219 952 0
72 -219 952 0
-72 -219 -952 0
952 366 -513 0
-952 366 513 0
952 -366 513 0
-952 -366 -513 0
366 -953 0
952 -953 0
-366 -952 953 0
219 -954 0
72 -954 0
-219 -72 954 0
-953 661 0
-954 661 0
953 954 -661 0
73 220 -955 0
-73 220 955 0
73 -220 955 0
-73 -220 -955 0
955 367 -514 0
-955 367 514 0
955 -367 514 0
-955 -367 -514 0
367 -956 0
955 -956 0
-367 -955 956 0
220 -957 0
73 -957 0
-220 -73 957 0
-956 662 0
-957 662 0
956 957 -662 0
74 221 -958 0
-74 221 958 0
74 -221 958 0
-74 -221 -958 0
958 368 -515 0
-958 368 515 0
958 -368 515 0
-958 -368 -515 0
368 -959 0
958 -959 0
-368 -958 959 0
221 -960 0
74 -960 0
-221 -74 960 0
-959 663 0
-960 663 0
959 960 -663 0
75 222 -961 0
-75 222 961 0
75 -222 961 0
-75 -222 -961 0
961 369 -516 0
-961 369 516 0
961 -369 516 0
-961 -369 -516 0
369 -962 0
961 -962 0
-369 -961 962 0
222 -963 0
75 -963 0
-222 -75 963 0
-962 664 0
-963 664 0
962 963 -664 0
76 223 -964 0
-76 223 964 0
76 -223 964 0
-76 -223 -964 0
964 370 -517 0
-964 370 517 0
964 -370 517 0
-964 -370 -517 0
370 -965 0
964 -965 0
-370 -964 965 0
223 -966 0
76 -966 0
-223 -76 966 0
-965 665 0
-966 665 0
965 966 -665 0
77 224 -967 0
-77 224 967 0
77 -224 967 0
-77 -224 -967 0
967 371 -518 0
-967 371 518 0
967 -371 518 0
-967 -371 -518 0
371 -968 0
967 -968 0
-371 -967 968 0
224 -969 0
77 -969 0
-224 -77 969 0
-968 666 0
-969 666 0
968 969 -666 0
78 225 -970 0
-78 225 970 0
78 -225 970 0
-78 -225 -970 0
970 372 -519 0
-970 372 519 0
970 -372 519 0
-970 -372 -519 0
372 -971 0
970 -971 0
-372 -970 971 0
225 -972 0
78 -972 0
-225 -78 972 0
-971 667 0
-972 667 0
971 972 -667 0
79 226 -973 0
-79 226 973 0
79 -226 973 0
-79 -226 -973 0
973 373 -520 0
-973 373 520 0
973 -373 520 0
-973 -373 -520 0
373 -974 0
973 -974 0
-373 -973 974 0
226 -975 0
79 -975 0
-226 -79 975 0
-974 668 0
-975 668 0
974 975 -668 0
80 227 -976 0
-80 227 976 0
80 -227 976 0
-80 -227 -976 0
976 374 -521 0
-976 374 521 0
976 -374 521 0
-976 -374 -521 0
374 -977 0
976 -977 0
-374 -976 977 0
227 -978 0
80 -978 0
-227 -80 978 0
-977 669 0
-978 669 0
977 978 -669 0
81 228 -979 0
-81 228 979 0
81 -228 979 0
-81 -228 -979 0
979 375 -522 0
-979 375 522 0
979 -375 522 0
-979 -375 -522 0
375 -980 0
979 -980 0
-375 -979 980 0
228 -981 0
81 -981 0
-228 -81 981 0
-980 670 0
-981 670 0
980 981 -670 0
82 229 -982 0
-82 229 982 0
82 -229 982 0
-82 -229 -982 0
982 376 -523 0
-982 376 523 0
982 -376 523 0
-982 -376 -523 0
376 -983 0
982 -983 0
-376 -982 983 0
229 -984 0
82 -984 0
-229 -82 984 0
-983 671 0
-984 671 0
983 984 -671 0
83 230 -985 0
-83 230 985 0
83 -230 985 0
-83 -230 -985 0
985 377 -524 0
-985 377 524 0
985 -377 524 0
-985 -377 -524 0
377 -986 0
985 -986 0
-377 -985 986 0
230 -987 0
83 -987 0
-230 -83 987 0
-986 672 0
-987 672 0
986 987 -672 0
84 231 -988 0
-84 231 988 0
84 -231 988 0
-84 -231 -988 0
988 378 -525 0
-988 378 525 0
988 -378 525 0
-988 -378 -525 0
378 -989 0
988 -989 0
-378 -988 989 0
231 -990 0
84 -990 0
-231 -84 990 0
-989 673 0
-990 673 0
989 990 -673 0
85 232 -991 0
-85 232 991 0
85 -232 991 0
-85 -232 -991 0
991 379 -526 0
-991 379 526 0
991 -379 526 0
-991 -379 -526 0
379 -992 0
991 -992 0
-379 -991 992 0
232 -993 0
85 -993 0
-232 -85 993 0
-992 674 0
-993 674 0
992 993 -674 0
86 233 -994 0
-86 233 994 0
86 -233 994 0
-86 -233 -994 0
994 380 -527 0
-994 380 527 0
994 -380 527 0
-994 -380 -527 0
380 -995 0
994 -995 0
-380 -994 995 0
233 -996 0
86 -996 0
-233 -86 996 0
-995 675 0
-996 675 0
995 996 -675 0
87 234 -997 0
-87 234 997 0
87 -234 997 0
-87 -234 -997 0
997 381 -528 0
-997 381 528 0
997 -381 528 0
-997 -381 -528 0
381 -998 0
997 -998 0
-381 -997 998 0
234 -999 0
87 -999 0
-234 -87 999 0
-998 676 0
-999 676 0
998 999 -676 0
88 235 -1000 0
-88 235 1000 0
88 -235 1000 0
-88 -235 -1000 0
1000 382 -529 0
-1000 382 529 0
1000 -382 529 0
-1000 -382 -529 0
382 -1001 0
1000 -1001 0
-382 -1000 1001 0
235 -1002 0
88 -1002 0
-235 -88 1002 0
-1001 677 0
-1002 677 0
1001 1002 -677 0
89 236 -1003 0
-89 236 1003 0
89 -236 1003 0
-89 -236 -1003 0
1003 383 -530 0
-1003 383 530 0
1003 -383 530 0
-1003 -383 -530 0
383 -1004 0
1003 -1004 0
-383 -1003 1004 0
236 -1005 0
89 -1005 0
-236 -89 1005 0
-1004 678 0
-1005 678 0
1004 1005 -678 0
90 237 -1006 0
-90 237 1006 0
90 -237 1006 0
-90 -237 -1006 0
1006 384 -531 0
-1006 384 531 0
1006 -384 531 0
-1006 -384 -531 0
384 -1007 0
1006 -1007 0
-384 -1006 1007 0
237 -1008 0
90 -1008 0
-237 -90 1008 0
-1007 679 0
-1008 679 0
1007 1008 -679 0
91 238 -1009 0
-91 238 1009 0
91 -238 1009 0
-91 -238 -1009 0
1009 385 -532 0
-1009 385 532 0
1009 -385 532 0
-1009 -385 -532 0
385 -1010 0
1009 -1010 0
-385 -1009 1010 0
238 -1011 0
91 -1011 0
-238 -91 1011 0
-1010 680 0
-1011 680 0
1010 1011 -680 0
92 239 -1012 0
-92 239 1012 0
92 -239 1012 0
-92 -239 -1012 0
1012 386 -533 0
-1012 386 533 0
1012 -386 533 0
-1012 -386 -533 0
386 -1013 0
1012 -1013 0
-386 -1012 1013 0
239 -1014 0
92 -1014 0
-239 -92 1014 0
-1013 681 0
-1014 681 0
1013 1014 -681 0
93 240 -1015 0
-93 240 1015 0
93 -240 1015 0
-93 -240 -1015 0
1015 387 -534 0
-1015 387 534 0
1015 -387 534 0
-1015 -387 -534 0
387 -1016 0
1015 -1016 0
-387 -1015 1016 0
240 -1017 0
93 -1017 0
-240 -93 1017 0
-1016 682 0
-1017 682 0
1016 1017 -682 0
94 241 -1018 0
-94 241 1018 0
94 -241 1018 0
-94 -241 -1018 0
1018 388 -535 0
-1018 388 535 0
1018 -388 535 0
-1018 -388 -535 0
388 -1019 0
1018 -1019 0
-388 -1018 1019 0
241 -1020 0
94 -1020 0
-241 -94 1020 0
-1019 683 0
-1020 683 0
1019 1020 -683 0
95 242 -1021 0
-95 242 1021 0
95 -242 1021 0
-95 -242 -1021 0
1021 389 -536 0
-1021 389 536 0
1021 -389 536 0
-1021 -389 -536 0
389 -1022 0
1021 -1022 0
-389 -1021 1022 0
242 -1023 0
95 -1023 0
-242 -95 1023 0
-1022 684 0
-1023 684 0
1022 1023 -684 0
96 243 -1024 0
-96 243 1024 0
96 -243 1024 0
-96 -243 -1024 0
1024 390 -537 0
-1024 390 537 0
1024 -390 537 0
-1024 -390 -537 0
390 -1025 0
1024 -1025 0
-390 -1024 1025 0
243 -1026 0
96 -1026 0
-243 -96 1026 0
-1025 685 0
-1026 685 0
1025 1026 -685 0
97 244 -1027 0
-97 244 1027 0
97 -244 1027 0
-97 -244 -1027 0
1027 391 -538 0
-1027 391 538 0
1027 -391 538 0
-1027 -391 -538 0
391 -1028 0
1027 -1028 0
-391 -1027 1028 0
244 -1029 0
97 -1029 0
-244 -97 1029 0
-1028 686 0
-1029 686 0
1028 1029 -686 0
98 245 -1030 0
-98 245 1030 0
98 -245 1030 0
-98 -245 -1030 0
1030 392 -539 0
-1030 392 539 0
1030 -392 539 0
-1030 -392 -539 0
392 -1031 0
1030 -1031 0
-392 -1030 1031 0
245 -1032 0
98 -1032 0
-245 -98 1032 0
-1031 687 0
-1032 687 0
1031 1032 -687 0
99 246 -1033 0
-99 246 1033 0
99 -246 1033 0
-99 -246 -1033 0
1033 393 -540 0
-1033 393 540 0
1033 -393 540 0
-1033 -393 -540 0
393 -1034 0
1033 -1034 0
-393 -1033 1034 0
246 -1035 0
99 -1035 0
-246 -99 1035 0
-1034 688 0
-1035 688 0
1034 1035 -688 0
100 247 -1036 0
-100 247 1036 0
100 -247 1036 0
-100 -247 -1036 0
1036 394 -541 0
-1036 394 541 0
1036 -394 541 0
-1036 -394 -541 0
394 -1037 0
1036 -1037 0
-394 -1036 1037 0
247 -1038 0
100 -1038 0
-247 -100 1038 0
-1037 689 0
-1038 689 0
1037 1038 -689 0
101 248 -1039 0
-101 248 1039 0
101 -248 1039 0
-101 -248 -1039 0
1039 395 -542 0
-1039 395 542 0
1039 -395 542 0
-1039 -395 -542 0
395 -1040 0
1039 -1040 0
-395 -1039 1040 0
248 -1041 0
101 -1041 0
-248 -101 1041 0
-1040 690 0
-1041 690 0
1040 1041 -690 0
102 249 -1042 0
-102 249 1042 0
102 -249 1042 0
-102 -249 -1042 0
1042 396 -543 0
-1042 396 543 0
1042 -396 543 0
-1042 -396 -543 0
396 -1043 0
1042 -1043 0
-396 -1042 1043 0
249 -1044 0
102 -1044 0
-249 -102 1044 0
-1043 691 0
-1044 691 0
1043 1044 -691 0
103 250 -1045 0
-103 250 1045 0
103 -250 1045 0
-103 -250 -1045 0
1045 397 -544 0
-1045 397 544 0
1045 -397 544 0
-1045 -397 -544 0
397 -1046 0
1045 -1046 0
-397 -1045 1046 0
250 -1047 0
103 -1047 0
-250 -103 1047 0
-1046 692 0
-1047 692 0
1046 1047 -692 0
104 251 -1048 0
-104 251 1048 0
104 -251 1048 0
-104 -251 -1048 0
1048 398 -545 0
-1048 398 545 0
1048 -398 545 0
-1048 -398 -545 0
398 -1049 0
1048 -1049 0
-398 -1048 1049 0
251 -1050 0
104 -1050 0
-251 -104 1050 0
-1049 693 0
-1050 693 0
1049 1050 -693 0
105 252 -1051 0
-105 252 1051 0
105 -252 1051 0
-105 -252 -1051 0
1051 399 -546 0
-1051 399 546 0
1051 -399 546 0
-1051 -399 -546 0
399 -1052 0
1051 -1052 0
-399 -1051 1052 0
252 -1053 0
105 -1053 0
-252 -105 1053 0
-1052 694 0
-1053 694 0
1052 1053 -694 0
106 253 -1054 0
-106 253 1054 0
106 -253 1054 0
-106 -253 -1054 0
1054 400 -547 0
-1054 400 547 0
1054 -400 547 0
-1054 -400 -547 0
400 -1055 0
1054 -1055 0
-400 -1054 1055 0
253 -1056 0
106 -1056 0
-253 -106 1056 0
-1055 695 0
-1056 695 0
1055 1056 -695 0
107 254 -1057 0
-107 254 1057 0
107 -254 1057 0
-107 -254 -1057 0
1057 401 -548 0
-1057 401 548 0
1057 -401 548 0
-1057 -401 -548 0
401 -1058 0
1057 -1058 0
-401 -1057 1058 0
254 -1059 0
107 -1059 0
-254 -107 1059 0
-1058 696 0
-1059 696 0
1058 1059 -696 0
108 255 -1060 0
-108 255 1060 0
108 -255 1060 0
-108 -255 -1060 0
1060 402 -549 0
-1060 402 549 0
1060 -402 549 0
-1060 -402 -549 0
402 -1061 0
1060 -1061 0
-402 -1060 1061 0
255 -1062 0
108 -1062 0
-255 -108 1062 0
-1061 697 0
-1062 697 0
1061 1062 -697 0
109 256 -1063 0
-109 256 1063 0
109 -256 1063 0
-109 -256 -1063 0
1063 403 -550 0
-1063 403 550 0
1063 -403 550 0
-1063 -403 -550 0
403 -1064 0
1063 -1064 0
-403 -1063 1064 0
256 -1065 0
109 -1065 0
-256 -109 1065 0
-1064 698 0
-1065 698 0
1064 1065 -698 0
110 257 -1066 0
-110 257 1066 0
110 -257 1066 0
-110 -257 -1066 0
1066 404 -551 0
-1066 404 551 0
1066 -404 551 0
-1066 -404 -551 0
404 -1067 0
1066 -1067 0
-404 -1066 1067 0
257 -1068 0
110 -1068 0
-257 -110 1068 0
-1067 699 0
-1068 699 0
1067 1068 -699 0
111 258 -1069 0
-111 258 1069 0
111 -258 1069 0
-111 -258 -1069 0
1069 405 -552 0
-1069 405 552 0
1069 -405 552 0
-1069 -405 -552 0
405 -1070 0
1069 -1070 0
-405 -1069 1070 0
258 -1071 0
111 -1071 0
-258 -111 1071 0
-1070 700 0
-1071 700 0
1070 1071 -700 0
112 259 -1072 0
-112 259 1072 0
112 -259 1072 0
-112 -259 -1072 0
1072 406 -553 0
-1072 406 553 0
1072 -406 553 0
-1072 -406 -553 0
406 -1073 0
1072 -1073 0
-406 -1072 1073 0
259 -1074 0
112 -1074 0
-259 -112 1074 0
-1073 701 0
-1074 701 0
1073 1074 -701 0
113 260 -1075 0
-113 260 1075 0
113 -260 1075 0
-113 -260 -1075 0
1075 407 -554 0
-1075 407 554 0
1075 -407 554 0
-1075 -407 -554 0
407 -1076 0
1075 -1076 0
-407 -1075 1076 0
260 -1077 0
113 -1077 0
-260 -113 1077 0
-1076 702 0
-1077 702 0
1076 1077 -702 0
114 261 -1078 0
-114 261 1078 0
114 -261 1078 0
-114 -261 -1078 0
1078 408 -555 0
-1078 408 555 0
1078 -408 555 0
-1078 -408 -555 0
408 -1079 0
1078 -1079 0
-408 -1078 1079 0
261 -1080 0
114 -1080 0
-261 -114 1080 0
-1079 703 0
-1080 703 0
1079 1080 -703 0
115 262 -1081 0
-115 262 1081 0
115 -262 1081 0
-115 -262 -1081 0
1081 409 -556 0
-1081 409 556 0
1081 -409 556 0
-1081 -409 -556 0
409 -1082 0
1081 -1082 0
-409 -1081 1082 0
262 -1083 0
115 -1083 0
-262 -115 1083 0
-1082 704 0
-1083 704 0
1082 1083 -704 0
116 263 -1084 0
-116 263 1084 0
116 -263 1084 0
-116 -263 -1084 0
1084 410 -557 0
-1084 410 557 0
1084 -410 557 0
-1084 -410 -557 0
410 -1085 0
1084 -1085 0
-410 -1084 1085 0
263 -1086 0
116 -1086 0
-263 -116 1086 0
-1085 705 0
-1086 705 0
1085 1086 -705 0
117 264 -1087 0
-117 264 1087 0
117 -264 1087 0
-117 -264 -1087 0
1087 411 -558 0
-1087 411 558 0
1087 -411 558 0
-1087 -411 -558 0
411 -1088 0
1087 -1088 0
-411 -1087 1088 0
264 -1089 0
117 -1089 0
-264 -117 1089 0
-1088 706 0
-1089 706 0
1088 1089 -706 0
118 265 -1090 0
-118 265 1090 0
118 -265 1090 0
-118 -265 -1090 0
1090 412 -559 0
-1090 412 559 0
1090 -412 559 0
-1090 -412 -559 0
412 -1091 0
1090 -1091 0
-412 -1090 1091 0
265 -1092 0
118 -1092 0
-265 -118 1092 0
-1091 707 0
-1092 707 0
1091 1092 -707 0
119 266 -1093 0
-119 266 1093 0
119 -266 1093 0
-119 -266 -1093 0
1093 413 -560 0
-1093 413 560 0
1093 -413 560 0
-1093 -413 -560 0
413 -1094 0
1093 -1094 0
-413 -1093 1094 0
266 -1095 0
119 -1095 0
-266 -119 1095 0
-1094 708 0
-1095 708 0
1094 1095 -708 0
120 267 -1096 0
-120 267 1096 0
120 -267 1096 0
-120 -267 -1096 0
1096 414 -561 0
-1096 414 561 0
1096 -414 561 0
-1096 -414 -561 0
414 -1097 0
1096 -1097 0
-414 -1096 1097 0
267 -1098 0
120 -1098 0
-267 -120 1098 0
-1097 709 0
-1098 709 0
1097 1098 -709 0
121 268 -1099 0
-121 268 1099 0
121 -268 1099 0
-121 -268 -1099 0
1099 415 -562 0
-1099 415 562 0
1099 -415 562 0
-1099 -415 -562 0
415 -1100 0
1099 -1100 0
-415 -1099 1100 0
268 -1101 0
121 -1101 0
-268 -121 1101 0
-1100 710 0
-1101 710 0
1100 1101 -710 0
122 269 -1102 0
-122 269 1102 0
122 -269 1102 0
-122 -269 -1102 0
1102 416 -563 0
-1102 416 563 0
1102 -416 563 0
-1102 -416 -563 0
416 -1103 0
1102 -1103 0
-416 -1102 1103 0
269 -1104 0
122 -1104 0
-269 -122 1104 0
-1103 711 0
-1104 711 0
1103 1104 -711 0
123 270 -1105 0
-123 270 1105 0
123 -270 1105 0
-123 -270 -1105 0
1105 417 -564 0
-1105 417 564 0
1105 -417 564 0
-1105 -417 -564 0
417 -1106 0
1105 -1106 0
-417 -1105 1106 0
270 -1107 0
123 -1107 0
-270 -123 1107 0
-1106 712 0
-1107 712 0
1106 1107 -712 0
124 271 -1108 0
-124 271 1108 0
124 -271 1108 0
-124 -271 -1108 0
1108 418 -565 0
-1108 418 565 0
1108 -418 565 0
-1108 -418 -565 0
418 -1109 0
1108 -1109 0
-418 -1108 1109 0
271 -1110 0
124 -1110 0
-271 -124 1110 0
-1109 713 0
-1110 713 0
1109 1110 -713 0
125 272 -1111 0
-125 272 1111 0
125 -272 1111 0
-125 -272 -1111 0
1111 419 -566 0
-1111 419 566 0
1111 -419 566 0
-1111 -419 -566 0
419 -1112 0
1111 -1112 0
-419 -1111 1112 0
272 -1113 0
125 -1113 0
-272 -125 1113 0
-1112 714 0
-1113 714 0
1112 1113 -714 0
126 273 -1114 0
-126 273 1114 0
126 -273 1114 0
-126 -273 -1114 0
1114 420 -567 0
-1114 420 567 0
1114 -420 567 0
-1114 -420 -567 0
420 -1115 0
1114 -1115 0
-420 -1114 1115 0
273 -1116 0
126 -1116 0
-273 -126 1116 0
-1115 715 0
-1116 715 0
1115 1116 -715 0
127 274 -1117 0
-127 274 1117 0
127 -274 1117 0
-127 -274 -1117 0
1117 421 -568 0
-1117 421 568 0
1117 -421 568 0
-1117 -421 -568 0
421 -1118 0
1117 -1118 0
-421 -1117 1118 0
274 -1119 0
127 -1119 0
-274 -127 1119 0
-1118 716 0
-1119 716 0
1118 1119 -716 0
128 275 -1120 0
-128 275 1120 0
128 -275 1120 0
-128 -275 -1120 0
1120 422 -569 0
-1120 422 569 0
1120 -422 569 0
-1120 -422 -569 0
422 -1121 0
1120 -1121 0
-422 -1120 1121 0
275 -1122 0
128 -1122 0
-275 -128 1122 0
-1121 717 0
-1122 717 0
1121 1122 -717 0
129 276 -1123 0
-129 276 1123 0
129 -276 1123 0
-129 -276 -1123 0
1123 423 -570 0
-1123 423 570 0
1123 -423 570 0
-1123 -423 -570 0
423 -1124 0
1123 -1124 0
-423 -1123 1124 0
276 -1125 0
129 -1125 0
-276 -129 1125 0
-1124 718 0
-1125 718 0
1124 1125 -718 0
130 277 -1126 0
-130 277 1126 0
130 -277 1126 0
-130 -277 -1126 0
1126 424 -571 0
-1126 424 571 0
1126 -424 571 0
-1126 -424 -571 0
424 -1127 0
1126 -1127 0
-424 -1126 1127 0
277 -1128 0
130 -1128 0
-277 -130 1128 0
-1127 719 0
-1128 719 0
1127 1128 -719 0
131 278 -1129 0
-131 278 1129 0
131 -278 1129 0
-131 -278 -1129 0
1129 425 -572 0
-1129 425 572 0
1129 -425 572 0
-1129 -425 -572 0
425 -1130 0
1129 -1130 0
-425 -1129 1130 0
278 -1131 0
131 -1131 0
-278 -131 1131 0
-1130 720 0
-1131 720 0
1130 1131 -720 0
132 279 -1132 0
-132 279 1132 0
132 -279 1132 0
-132 -279 -1132 0
1132 426 -573 0
-1132 426 573 0
1132 -426 573 0
-1132 -426 -573 0
426 -1133 0
1132 -1133 0
-426 -1132 1133 0
279 -1134 0
132 -1134 0
-279 -132 1134 0
-1133 721 0
-1134 721 0
1133 1134 -721 0
133 280 -1135 0
-133 280 1135 0
133 -280 1135 0
-133 -280 -1135 0
1135 427 -574 0
-1135 427 574 0
1135 -427 574 0
-1135 -427 -574 0
427 -1136 0
1135 -1136 0
-427 -1135 1136 0
280 -1137 0
133 -1137 0
-280 -133 1137 0
-1136 722 0
-1137 722 0
1136 1137 -722 0
134 281 -1138 0
-134 281 1138 0
134 -281 1138 0
-134 -281 -1138 0
1138 428 -575 0
-1138 428 575 0
1138 -428 575 0
-1138 -428 -575 0
428 -1139 0
1138 -1139 0
-428 -1138 1139 0
281 -1140 0
134 -1140 0
-281 -134 1140 0
-1139 723 0
-1140 723 0
1139 1140 -723 0
135 282 -1141 0
-135 282 1141 0
135 -282 1141 0
-135 -282 -1141 0
1141 429 -576 0
-1141 429 576 0
1141 -429 576 0
-1141 -429 -576 0
429 -1142 0
1141 -1142 0
-429 -1141 1142 0
282 -1143 0
135 -1143 0
-282 -135 1143 0
-1142 724 0
-1143 724 0
1142 1143 -724 0
136 283 -1144 0
-136 283 1144 0
136 -283 1144 0
-136 -283 -1144 0
1144 430 -577 0
-1144 430 577 0
1144 -430 577 0
-1144 -430 -577 0
430 -1145 0
1144 -1145 0
-430 -1144 1145 0
283 -1146 0
136 -1146 0
-283 -136 1146 0
-1145 725 0
-1146 725 0
1145 1146 -725 0
137 284 -1147 0
-137 284 1147 0
137 -284 1147 0
-137 -284 -1147 0
1147 431 -578 0
-1147 431 578 0
1147 -431 578 0
-1147 -431 -578 0
431 -1148 0
1147 -1148 0
-431 -1147 1148 0
284 -1149 0
137 -1149 0
-284 -137 1149 0
-1148 726 0
-1149 726 0
1148 1149 -726 0
138 285 -1150 0
-138 285 1150 0
138 -285 1150 0
-138 -285 -1150 0
1150 432 -579 0
-1150 432 579 0
1150 -432 579 0
-1150 -432 -579 0
432 -1151 0
1150 -1151 0
-432 -1150 1151 0
285 -1152 0
138 -1152 0
-285 -138 1152 0
-1151 727 0
-1152 727 0
1151 1152 -727 0
139 286 -1153 0
-139 286 1153 0
139 -286 1153 0
-139 -286 -1153 0
1153 433 -580 0
-1153 433 580 0
1153 -433 580 0
-1153 -433 -580 0
433 -1154 0
1153 -1154 0
-433 -1153 1154 0
286 -1155 0
139 -1155 0
-286 -139 1155 0
-1154 728 0
-1155 728 0
1154 1155 -728 0
140 287 -1156 0
-140 287 1156 0
140 -287 1156 0
-140 -287 -1156 0
1156 434 -581 0
-1156 434 581 0
1156 -434 581 0
-1156 -434 -581 0
434 -1157 0
1156 -1157 0
-434 -1156 1157 0
287 -1158 0
140 -1158 0
-287 -140 1158 0
-1157 729 0
-1158 729 0
1157 1158 -729 0
141 288 -1159 0
-141 288 1159 0
141 -288 1159 0
-141 -288 -1159 0
1159 435 -582 0
-1159 435 582 0
1159 -435 582 0
-1159 -435 -582 0
435 -1160 0
1159 -1160 0
-435 -1159 1160 0
288 -1161 0
141 -1161 0
-288 -141 1161 0
-1160 730 0
-1161 730 0
1160 1161 -730 0
142 289 -1162 0
-142 289 1162 0
142 -289 1162 0
-142 -289 -1162 0
1162 436 -583 0
-1162 436 583 0
1162 -436 583 0
-1162 -436 -583 0
436 -1163 0
1162 -1163 0
-436 -1162 1163 0
289 -1164 0
142 -1164 0
-289 -142 1164 0
-1163 731 0
-1164 731 0
1163 1164 -731 0
143 290 -1165 0
-143 290 1165 0
143 -290 1165 0
-143 -290 -1165 0
1165 437 -584 0
-1165 437 584 0
1165 -437 584 0
-1165 -437 -584 0
437 -1166 0
1165 -1166 0
-437 -1165 1166 0
290 -1167 0
143 -1167 0
-290 -143 1167 0
-1166 732 0
-1167 732 0
1166 1167 -732 0
144 291 -1168 0
-144 291 1168 0
144 -291 1168 0
-144 -291 -1168 0
1168 438 -585 0
-1168 438 585 0
1168 -438 585 0
-1168 -438 -585 0
438 -1169 0
1168 -1169 0
-438 -1168 1169 0
291 -1170 0
144 -1170 0
-291 -144 1170 0
-1169 733 0
-1170 733 0
1169 1170 -733 0
145 292 -1171 0
-145 292 1171 0
145 -292 1171 0
-145 -292 -1171 0
1171 439 -586 0
-1171 439 586 0
1171 -439 586 0
-1171 -439 -586 0
439 -1172 0
1171 -1172 0
-439 -1171 1172 0
292 -1173 0
145 -1173 0
-292 -145 1173 0
-1172 734 0
-1173 734 0
1172 1173 -734 0
146 293 -1174 0
-146 293 1174 0
146 -293 1174 0
-146 -293 -1174 0
1174 440 -587 0
-1174 440 587 0
1174 -440 587 0
-1174 -440 -587 0
440 -1175 0
1174 -1175 0
-440 -1174 1175 0
293 -1176 0
146 -1176 0
-293 -146 1176 0
-1175 735 0
-1176 735 0
1175 1176 -735 0
147 294 -1177 0
-147 294 1177 0
147 -294 1177 0
-147 -294 -1177 0
1177 441 -588 0
-1177 441 588 0
1177 -441 588 0
-1177 -441 -588 0
441 -1178 0
1177 -1178 0
-441 -1177 1178 0
294 -1179 0
147 -1179 0
-294 -147 1179 0
-1178 736 0
-1179 736 0
1178 1179 -736 0
